p cnf 637 1601
e 1 2 3 4 5 6 7 8 9 10 11 12 13 14 15 16 17 18 19 20 21 22 23 24 25 26 27 28 29 30 31 32 33 34 35 36 37 38 39 40 41 42 43 44 45 46 47 48 49 50 51 52 53 54 55 56 57 58 59 60 61 62 63 64 65 66 67 68 69 70 71 72 73 74 75 76 77 78 79 80 81 82 83 84 85 86 87 88 89 90 91 92 93 94 95 96 97 98 99 100 101 102 103 104 105 106 107 108 109 110 111 112 113 114 115 116 0
a 117 118 119 120 0
e 121 122 123 124 125 126 127 128 129 130 131 132 133 134 135 136 137 138 139 140 141 142 143 144 145 146 147 148 149 150 151 152 153 154 155 156 157 158 159 160 161 162 163 164 165 166 167 168 169 170 171 172 173 174 175 176 177 178 179 180 181 182 183 184 185 186 187 188 189 190 191 192 193 194 195 196 197 198 199 200 201 202 203 204 205 206 207 208 209 210 211 212 213 214 215 216 217 218 219 220 221 222 223 224 225 226 227 228 229 230 231 232 233 234 235 236 237 238 239 240 241 242 243 244 245 246 247 248 249 250 251 252 253 254 255 256 257 258 259 260 261 262 263 264 265 266 267 268 269 270 271 272 273 274 275 276 277 278 279 280 281 282 0
a 283 284 285 286 0
e 287 288 289 290 291 292 293 294 295 296 297 298 299 300 301 302 303 304 305 306 307 308 309 310 311 312 313 314 315 316 317 318 319 320 321 322 323 324 325 326 327 328 329 330 331 332 333 334 335 336 337 338 339 340 341 342 343 344 345 346 347 348 349 350 351 352 353 354 355 356 357 358 359 360 361 362 363 364 365 366 367 368 369 370 371 372 373 374 375 376 377 378 379 380 381 382 383 384 385 386 387 388 389 390 391 392 393 394 395 396 397 398 399 400 401 402 403 404 405 406 407 408 409 410 411 412 413 414 415 416 417 418 419 420 421 422 423 424 425 426 427 428 429 430 431 432 433 434 435 436 437 438 439 440 441 442 443 444 445 446 447 448 0
a 449 450 451 452 0
e 453 454 455 456 457 458 459 460 461 462 463 464 465 466 467 468 469 470 471 472 473 474 475 476 477 478 479 480 481 482 483 484 485 486 487 488 489 490 491 492 493 494 495 496 497 498 499 500 501 502 503 504 505 506 507 508 509 510 511 512 513 514 515 516 517 518 519 520 521 522 523 524 525 526 527 528 529 530 531 532 533 534 535 536 537 538 539 540 541 542 543 544 545 546 547 548 549 550 551 552 553 554 555 556 557 558 559 560 561 562 563 564 565 566 567 568 569 570 571 572 573 574 575 576 577 578 579 580 581 582 583 584 585 586 587 588 589 590 591 592 593 594 595 596 597 598 599 600 601 602 603 604 605 606 607 608 609 610 611 612 613 614 615 616 617 618 619 620 621 622 623 624 625 626 627 628 629 630 631 632 633 634 635 636 637 0
-366 0
-49 0
332 0
-521 0
165 0
-29 0
-21 0
88 0
166 0
501 0
-278 0
-529 0
-79 0
257 0
170 0
-30 0
415 0
417 0
168 0
418 0
419 0
174 0
337 0
341 0
-195 0
-357 0
614 0
-15 0
579 0
-19 0
-114 0
-271 0
413 0
-439 0
-26 0
-3 0
-24 0
580 0
-606 0
-605 0
-76 0
81 0
334 0
-444 0
-22 0
340 0
-113 0
85 0
502 0
-277 0
-609 0
587 0
-109 0
-5 0
-105 0
-280 0
588 0
-18 0
-64 0
173 0
-356 0
339 0
-108 0
-440 0
412 0
-4 0
-52 0
-446 0
-355 0
-360 0
89 0
-199 0
-365 0
-637 0
-447 0
-532 0
-10 0
-25 0
-190 0
-274 0
-16 0
-55 0
414 0
584 0
-445 0
-61 0
247 0
333 0
-442 0
-424 0
90 0
-194 0
-31 0
423 0
331 0
248 0
256 0
585 0
-8 0
-602 0
589 0
-530 0
253 0
-531 0
-111 0
-276 0
-193 0
-438 0
255 0
-607 0
-437 0
583 0
-608 0
-343 0
252 0
336 0
506 0
508 0
169 0
-70 0
581 0
-198 0
-196 0
-279 0
-363 0
422 0
-604 0
250 0
-358 0
-106 0
-509 0
-107 0
1 0
86 0
420 0
-610 0
-197 0
-270 0
582 0
338 0
507 0
-611 0
-192 0
-258 0
-603 0
-92 0
578 0
-20 0
82 0
-590 0
-33 0
-28 0
175 0
335 0
-613 0
503 0
-110 0
-34 0
-67 0
-522 0
-6 0
-58 0
167 0
498 0
500 0
-525 0
-115 0
-2 0
84 0
-441 0
-273 0
342 0
499 0
-527 0
-359 0
-523 0
-436 0
-272 0
-32 0
-12 0
91 0
249 0
172 0
-23 0
-9 0
-443 0
-361 0
-11 0
254 0
505 0
-191 0
251 0
-612 0
-364 0
-73 0
416 0
586 0
171 0
246 0
-7 0
504 0
-362 0
-528 0
80 0
-281 0
-27 0
83 0
-112 0
87 0
421 0
-200 0
-17 0
-104 0
-189 0
497 0
-275 0
-526 0
-524 0
-177 0
-14 0
-13 0
176 0
-116 35 0
-201 116 0
-282 201 0
-367 282 0
-448 367 0
-533 448 0
-48 133 0
-51 136 0
-54 139 0
-57 142 0
-60 145 0
-63 148 0
-66 151 0
-69 154 0
-72 157 0
-75 160 0
-78 163 0
-133 214 0
-136 217 0
-139 220 0
-142 223 0
-145 226 0
-148 229 0
-151 232 0
-154 235 0
-157 238 0
-160 241 0
-163 244 0
-214 299 0
-217 302 0
-220 305 0
-223 308 0
-226 311 0
-229 314 0
-232 317 0
-235 320 0
-238 323 0
-241 326 0
-244 329 0
-299 380 0
-302 383 0
-305 386 0
-308 389 0
-311 392 0
-314 395 0
-317 398 0
-320 401 0
-323 404 0
-326 407 0
-329 410 0
-380 465 0
-383 468 0
-386 471 0
-389 474 0
-392 477 0
-395 480 0
-398 483 0
-401 486 0
-404 489 0
-407 492 0
-410 495 0
-465 546 0
-468 549 0
-471 552 0
-474 555 0
-477 558 0
-480 561 0
-483 564 0
-486 567 0
-489 570 0
-492 573 0
-495 576 0
-134 215 0
-137 218 0
-140 221 0
-143 224 0
-146 227 0
-149 230 0
-152 233 0
-155 236 0
-158 239 0
-161 242 0
-164 245 0
-215 300 0
-218 303 0
-221 306 0
-224 309 0
-227 312 0
-230 315 0
-233 318 0
-236 321 0
-239 324 0
-242 327 0
-245 330 0
-300 381 0
-303 384 0
-306 387 0
-309 390 0
-312 393 0
-315 396 0
-318 399 0
-321 402 0
-324 405 0
-327 408 0
-330 411 0
-381 466 0
-384 469 0
-387 472 0
-390 475 0
-393 478 0
-396 481 0
-399 484 0
-402 487 0
-405 490 0
-408 493 0
-411 496 0
-466 547 0
-469 550 0
-472 553 0
-475 556 0
-478 559 0
-481 562 0
-484 565 0
-487 568 0
-490 571 0
-493 574 0
-496 577 0
-133 -134 0
-136 -137 0
-139 -140 0
-142 -143 0
-145 -146 0
-148 -149 0
-151 -152 0
-154 -155 0
-157 -158 0
-160 -161 0
-163 -164 0
-214 -215 0
-217 -218 0
-220 -221 0
-223 -224 0
-226 -227 0
-229 -230 0
-232 -233 0
-235 -236 0
-238 -239 0
-241 -242 0
-244 -245 0
-299 -300 0
-302 -303 0
-305 -306 0
-308 -309 0
-311 -312 0
-314 -315 0
-317 -318 0
-320 -321 0
-323 -324 0
-326 -327 0
-329 -330 0
-380 -381 0
-383 -384 0
-386 -387 0
-389 -390 0
-392 -393 0
-395 -396 0
-398 -399 0
-401 -402 0
-404 -405 0
-407 -408 0
-410 -411 0
-465 -466 0
-468 -469 0
-471 -472 0
-474 -475 0
-477 -478 0
-480 -481 0
-483 -484 0
-486 -487 0
-489 -490 0
-492 -493 0
-495 -496 0
-546 -547 0
-549 -550 0
-552 -553 0
-555 -556 0
-558 -559 0
-561 -562 0
-564 -565 0
-567 -568 0
-570 -571 0
-573 -574 0
-576 -577 0
-47 48 0
47 -48 0
-50 51 0
50 -51 0
-53 54 0
53 -54 0
-56 57 0
56 -57 0
-59 60 0
59 -60 0
-62 63 0
62 -63 0
-65 66 0
65 -66 0
-68 69 0
68 -69 0
-71 72 0
71 -72 0
-74 75 0
74 -75 0
-77 78 0
77 -78 0
-132 133 134 0
132 -133 0
132 -134 0
-135 136 137 0
135 -136 0
135 -137 0
-138 139 140 0
138 -139 0
138 -140 0
-141 142 143 0
141 -142 0
141 -143 0
-144 145 146 0
144 -145 0
144 -146 0
-147 148 149 0
147 -148 0
147 -149 0
-150 151 152 0
150 -151 0
150 -152 0
-153 154 155 0
153 -154 0
153 -155 0
-156 157 158 0
156 -157 0
156 -158 0
-159 160 161 0
159 -160 0
159 -161 0
-162 163 164 0
162 -163 0
162 -164 0
-213 214 215 0
213 -214 0
213 -215 0
-216 217 218 0
216 -217 0
216 -218 0
-219 220 221 0
219 -220 0
219 -221 0
-222 223 224 0
222 -223 0
222 -224 0
-225 226 227 0
225 -226 0
225 -227 0
-228 229 230 0
228 -229 0
228 -230 0
-231 232 233 0
231 -232 0
231 -233 0
-234 235 236 0
234 -235 0
234 -236 0
-237 238 239 0
237 -238 0
237 -239 0
-240 241 242 0
240 -241 0
240 -242 0
-243 244 245 0
243 -244 0
243 -245 0
-298 299 300 0
298 -299 0
298 -300 0
-301 302 303 0
301 -302 0
301 -303 0
-304 305 306 0
304 -305 0
304 -306 0
-307 308 309 0
307 -308 0
307 -309 0
-310 311 312 0
310 -311 0
310 -312 0
-313 314 315 0
313 -314 0
313 -315 0
-316 317 318 0
316 -317 0
316 -318 0
-319 320 321 0
319 -320 0
319 -321 0
-322 323 324 0
322 -323 0
322 -324 0
-325 326 327 0
325 -326 0
325 -327 0
-328 329 330 0
328 -329 0
328 -330 0
-379 380 381 0
379 -380 0
379 -381 0
-382 383 384 0
382 -383 0
382 -384 0
-385 386 387 0
385 -386 0
385 -387 0
-388 389 390 0
388 -389 0
388 -390 0
-391 392 393 0
391 -392 0
391 -393 0
-394 395 396 0
394 -395 0
394 -396 0
-397 398 399 0
397 -398 0
397 -399 0
-400 401 402 0
400 -401 0
400 -402 0
-403 404 405 0
403 -404 0
403 -405 0
-406 407 408 0
406 -407 0
406 -408 0
-409 410 411 0
409 -410 0
409 -411 0
-464 465 466 0
464 -465 0
464 -466 0
-467 468 469 0
467 -468 0
467 -469 0
-470 471 472 0
470 -471 0
470 -472 0
-473 474 475 0
473 -474 0
473 -475 0
-476 477 478 0
476 -477 0
476 -478 0
-479 480 481 0
479 -480 0
479 -481 0
-482 483 484 0
482 -483 0
482 -484 0
-485 486 487 0
485 -486 0
485 -487 0
-488 489 490 0
488 -489 0
488 -490 0
-491 492 493 0
491 -492 0
491 -493 0
-494 495 496 0
494 -495 0
494 -496 0
-545 546 547 0
545 -546 0
545 -547 0
-548 549 550 0
548 -549 0
548 -550 0
-551 552 553 0
551 -552 0
551 -553 0
-554 555 556 0
554 -555 0
554 -556 0
-557 558 559 0
557 -558 0
557 -559 0
-560 561 562 0
560 -561 0
560 -562 0
-563 564 565 0
563 -564 0
563 -565 0
-566 567 568 0
566 -567 0
566 -568 0
-569 570 571 0
569 -570 0
569 -571 0
-572 573 574 0
572 -573 0
572 -574 0
-575 576 577 0
575 -576 0
575 -577 0
35 -48 0
35 -51 0
35 -54 0
35 -57 0
35 -60 0
35 -63 0
35 -66 0
35 -69 0
35 -72 0
35 -75 0
35 -78 0
116 48 -133 0
116 51 -136 0
116 54 -139 0
116 57 -142 0
116 60 -145 0
116 63 -148 0
116 66 -151 0
116 69 -154 0
116 72 -157 0
116 75 -160 0
116 78 -163 0
201 133 -214 0
201 136 -217 0
201 139 -220 0
201 142 -223 0
201 145 -226 0
201 148 -229 0
201 151 -232 0
201 154 -235 0
201 157 -238 0
201 160 -241 0
201 163 -244 0
282 214 -299 0
282 217 -302 0
282 220 -305 0
282 223 -308 0
282 226 -311 0
282 229 -314 0
282 232 -317 0
282 235 -320 0
282 238 -323 0
282 241 -326 0
282 244 -329 0
367 299 -380 0
367 302 -383 0
367 305 -386 0
367 308 -389 0
367 311 -392 0
367 314 -395 0
367 317 -398 0
367 320 -401 0
367 323 -404 0
367 326 -407 0
367 329 -410 0
448 380 -465 0
448 383 -468 0
448 386 -471 0
448 389 -474 0
448 392 -477 0
448 395 -480 0
448 398 -483 0
448 401 -486 0
448 404 -489 0
448 407 -492 0
448 410 -495 0
533 465 -546 0
533 468 -549 0
533 471 -552 0
533 474 -555 0
533 477 -558 0
533 480 -561 0
533 483 -564 0
533 486 -567 0
533 489 -570 0
533 492 -573 0
533 495 -576 0
116 -134 0
116 -137 0
116 -140 0
116 -143 0
116 -146 0
116 -149 0
116 -152 0
116 -155 0
116 -158 0
116 -161 0
116 -164 0
201 134 -215 0
201 137 -218 0
201 140 -221 0
201 143 -224 0
201 146 -227 0
201 149 -230 0
201 152 -233 0
201 155 -236 0
201 158 -239 0
201 161 -242 0
201 164 -245 0
282 215 -300 0
282 218 -303 0
282 221 -306 0
282 224 -309 0
282 227 -312 0
282 230 -315 0
282 233 -318 0
282 236 -321 0
282 239 -324 0
282 242 -327 0
282 245 -330 0
367 300 -381 0
367 303 -384 0
367 306 -387 0
367 309 -390 0
367 312 -393 0
367 315 -396 0
367 318 -399 0
367 321 -402 0
367 324 -405 0
367 327 -408 0
367 330 -411 0
448 381 -466 0
448 384 -469 0
448 387 -472 0
448 390 -475 0
448 393 -478 0
448 396 -481 0
448 399 -484 0
448 402 -487 0
448 405 -490 0
448 408 -493 0
448 411 -496 0
533 466 -547 0
533 469 -550 0
533 472 -553 0
533 475 -556 0
533 478 -559 0
533 481 -562 0
533 484 -565 0
533 487 -568 0
533 490 -571 0
533 493 -574 0
533 496 -577 0
36 -48 0
37 -51 0
38 -54 0
39 -57 0
40 -60 0
41 -63 0
42 -66 0
43 -69 0
44 -72 0
45 -75 0
46 -78 0
202 133 -214 0
134 -215 0
203 136 -217 0
137 -218 0
204 139 -220 0
140 -221 0
205 142 -223 0
143 -224 0
206 145 -226 0
146 -227 0
207 148 -229 0
149 -230 0
208 151 -232 0
152 -233 0
209 154 -235 0
155 -236 0
210 157 -238 0
158 -239 0
211 160 -241 0
161 -242 0
212 163 -244 0
164 -245 0
368 299 -380 0
300 -381 0
369 302 -383 0
303 -384 0
370 305 -386 0
306 -387 0
371 308 -389 0
309 -390 0
372 311 -392 0
312 -393 0
373 314 -395 0
315 -396 0
374 317 -398 0
318 -399 0
375 320 -401 0
321 -402 0
376 323 -404 0
324 -405 0
377 326 -407 0
327 -408 0
378 329 -410 0
330 -411 0
534 465 -546 0
466 -547 0
535 468 -549 0
469 -550 0
536 471 -552 0
472 -553 0
537 474 -555 0
475 -556 0
538 477 -558 0
478 -559 0
539 480 -561 0
481 -562 0
540 483 -564 0
484 -565 0
541 486 -567 0
487 -568 0
542 489 -570 0
490 -571 0
543 492 -573 0
493 -574 0
544 495 -576 0
496 -577 0
121 -134 0
48 -133 0
122 -137 0
51 -136 0
123 -140 0
54 -139 0
124 -143 0
57 -142 0
125 -146 0
60 -145 0
126 -149 0
63 -148 0
127 -152 0
66 -151 0
128 -155 0
69 -154 0
129 -158 0
72 -157 0
130 -161 0
75 -160 0
131 -164 0
78 -163 0
287 215 -300 0
214 -299 0
288 218 -303 0
217 -302 0
289 221 -306 0
220 -305 0
290 224 -309 0
223 -308 0
291 227 -312 0
226 -311 0
292 230 -315 0
229 -314 0
293 233 -318 0
232 -317 0
294 236 -321 0
235 -320 0
295 239 -324 0
238 -323 0
296 242 -327 0
241 -326 0
297 245 -330 0
244 -329 0
453 381 -466 0
380 -465 0
454 384 -469 0
383 -468 0
455 387 -472 0
386 -471 0
456 390 -475 0
389 -474 0
457 393 -478 0
392 -477 0
458 396 -481 0
395 -480 0
459 399 -484 0
398 -483 0
460 402 -487 0
401 -486 0
461 405 -490 0
404 -489 0
462 408 -493 0
407 -492 0
463 411 -496 0
410 -495 0
615 -555 -546 -549 -552 0
-615 555 0
-615 546 0
-615 549 0
-615 552 0
616 -555 -546 -549 -561 -567 -573 0
-616 555 0
-616 546 0
-616 549 0
-616 561 0
-616 567 0
-616 573 0
617 -555 -546 -549 -561 -567 -573 -576 0
-617 555 0
-617 546 0
-617 549 0
-617 561 0
-617 567 0
-617 573 0
-617 576 0
618 -555 -546 -549 -561 -570 0
-618 555 0
-618 546 0
-618 549 0
-618 561 0
-618 570 0
619 -555 -546 -549 -561 -570 -573 -576 0
-619 555 0
-619 546 0
-619 549 0
-619 561 0
-619 570 0
-619 573 0
-619 576 0
620 -555 -558 -549 -552 0
-620 555 0
-620 558 0
-620 549 0
-620 552 0
621 -555 -558 -561 -552 0
-621 555 0
-621 558 0
-621 561 0
-621 552 0
622 -555 -558 -561 -570 0
-622 555 0
-622 558 0
-622 561 0
-622 570 0
623 -555 -558 -561 -570 -573 -576 0
-623 555 0
-623 558 0
-623 561 0
-623 570 0
-623 573 0
-623 576 0
624 -555 -558 -567 -570 0
-624 555 0
-624 558 0
-624 567 0
-624 570 0
625 -555 -558 -567 -570 -573 -576 0
-625 555 0
-625 558 0
-625 567 0
-625 570 0
-625 573 0
-625 576 0
626 -555 -558 -567 -573 0
-626 555 0
-626 558 0
-626 567 0
-626 573 0
627 -555 -558 -567 -573 -576 0
-627 555 0
-627 558 0
-627 567 0
-627 573 0
-627 576 0
628 -564 -558 -549 -552 0
-628 564 0
-628 558 0
-628 549 0
-628 552 0
629 -564 -558 -561 -552 0
-629 564 0
-629 558 0
-629 561 0
-629 552 0
630 -564 -558 -561 -570 0
-630 564 0
-630 558 0
-630 561 0
-630 570 0
631 -564 -558 -561 -570 -573 -576 0
-631 564 0
-631 558 0
-631 561 0
-631 570 0
-631 573 0
-631 576 0
632 -564 -567 -561 -552 0
-632 564 0
-632 567 0
-632 561 0
-632 552 0
633 -564 -567 -570 0
-633 564 0
-633 567 0
-633 570 0
634 -564 -567 -570 -573 -576 0
-634 564 0
-634 567 0
-634 570 0
-634 573 0
-634 576 0
635 -564 -567 -573 0
-635 564 0
-635 567 0
-635 573 0
636 -564 -567 -573 -576 0
-636 564 0
-636 567 0
-636 573 0
-636 576 0
615 616 617 618 619 620 621 622 623 624 625 626 627 628 629 630 631 632 633 634 635 636 0
-36 93 0
36 -93 0
-37 94 0
-93 94 0
37 -94 93 0
-37 -93 0
-38 95 0
-94 95 0
38 -95 94 0
-38 -94 0
-39 96 0
-95 96 0
39 -96 95 0
-39 -95 0
-40 97 0
-96 97 0
40 -97 96 0
-40 -96 0
-41 98 0
-97 98 0
41 -98 97 0
-41 -97 0
-42 99 0
-98 99 0
42 -99 98 0
-42 -98 0
-43 100 0
-99 100 0
43 -100 99 0
-43 -99 0
-44 101 0
-100 101 0
44 -101 100 0
-44 -100 0
-45 102 0
-101 102 0
45 -102 101 0
-45 -101 0
-46 103 0
-102 103 0
46 -103 102 0
-46 -102 0
-202 259 0
202 -259 0
-203 260 0
-259 260 0
203 -260 259 0
-203 -259 0
-204 261 0
-260 261 0
204 -261 260 0
-204 -260 0
-205 262 0
-261 262 0
205 -262 261 0
-205 -261 0
-206 263 0
-262 263 0
206 -263 262 0
-206 -262 0
-207 264 0
-263 264 0
207 -264 263 0
-207 -263 0
-208 265 0
-264 265 0
208 -265 264 0
-208 -264 0
-209 266 0
-265 266 0
209 -266 265 0
-209 -265 0
-210 267 0
-266 267 0
210 -267 266 0
-210 -266 0
-211 268 0
-267 268 0
211 -268 267 0
-211 -267 0
-212 269 0
-268 269 0
212 -269 268 0
-212 -268 0
-368 425 0
368 -425 0
-369 426 0
-425 426 0
369 -426 425 0
-369 -425 0
-370 427 0
-426 427 0
370 -427 426 0
-370 -426 0
-371 428 0
-427 428 0
371 -428 427 0
-371 -427 0
-372 429 0
-428 429 0
372 -429 428 0
-372 -428 0
-373 430 0
-429 430 0
373 -430 429 0
-373 -429 0
-374 431 0
-430 431 0
374 -431 430 0
-374 -430 0
-375 432 0
-431 432 0
375 -432 431 0
-375 -431 0
-376 433 0
-432 433 0
376 -433 432 0
-376 -432 0
-377 434 0
-433 434 0
377 -434 433 0
-377 -433 0
-378 435 0
-434 435 0
378 -435 434 0
-378 -434 0
-534 591 0
534 -591 0
-535 592 0
-591 592 0
535 -592 591 0
-535 -591 0
-536 593 0
-592 593 0
536 -593 592 0
-536 -592 0
-537 594 0
-593 594 0
537 -594 593 0
-537 -593 0
-538 595 0
-594 595 0
538 -595 594 0
-538 -594 0
-539 596 0
-595 596 0
539 -596 595 0
-539 -595 0
-540 597 0
-596 597 0
540 -597 596 0
-540 -596 0
-541 598 0
-597 598 0
541 -598 597 0
-541 -597 0
-542 599 0
-598 599 0
542 -599 598 0
-542 -598 0
-543 600 0
-599 600 0
543 -600 599 0
-543 -599 0
-544 601 0
-600 601 0
544 -601 600 0
-544 -600 0
-121 178 0
121 -178 0
-122 179 0
-178 179 0
122 -179 178 0
-122 -178 0
-123 180 0
-179 180 0
123 -180 179 0
-123 -179 0
-124 181 0
-180 181 0
124 -181 180 0
-124 -180 0
-125 182 0
-181 182 0
125 -182 181 0
-125 -181 0
-126 183 0
-182 183 0
126 -183 182 0
-126 -182 0
-127 184 0
-183 184 0
127 -184 183 0
-127 -183 0
-128 185 0
-184 185 0
128 -185 184 0
-128 -184 0
-129 186 0
-185 186 0
129 -186 185 0
-129 -185 0
-130 187 0
-186 187 0
130 -187 186 0
-130 -186 0
-131 188 0
-187 188 0
131 -188 187 0
-131 -187 0
-287 344 0
287 -344 0
-288 345 0
-344 345 0
288 -345 344 0
-288 -344 0
-289 346 0
-345 346 0
289 -346 345 0
-289 -345 0
-290 347 0
-346 347 0
290 -347 346 0
-290 -346 0
-291 348 0
-347 348 0
291 -348 347 0
-291 -347 0
-292 349 0
-348 349 0
292 -349 348 0
-292 -348 0
-293 350 0
-349 350 0
293 -350 349 0
-293 -349 0
-294 351 0
-350 351 0
294 -351 350 0
-294 -350 0
-295 352 0
-351 352 0
295 -352 351 0
-295 -351 0
-296 353 0
-352 353 0
296 -353 352 0
-296 -352 0
-297 354 0
-353 354 0
297 -354 353 0
-297 -353 0
-453 510 0
453 -510 0
-454 511 0
-510 511 0
454 -511 510 0
-454 -510 0
-455 512 0
-511 512 0
455 -512 511 0
-455 -511 0
-456 513 0
-512 513 0
456 -513 512 0
-456 -512 0
-457 514 0
-513 514 0
457 -514 513 0
-457 -513 0
-458 515 0
-514 515 0
458 -515 514 0
-458 -514 0
-459 516 0
-515 516 0
459 -516 515 0
-459 -515 0
-460 517 0
-516 517 0
460 -517 516 0
-460 -516 0
-461 518 0
-517 518 0
461 -518 517 0
-461 -517 0
-462 519 0
-518 519 0
462 -519 518 0
-462 -518 0
-463 520 0
-519 520 0
463 -520 519 0
-463 -519 0
-35 103 0
-201 269 0
-367 435 0
-533 601 0
-116 188 0
-282 354 0
-448 520 0
-36 48 0
-36 35 0
-37 51 0
-37 35 0
-38 54 0
-38 35 0
-39 57 0
-39 35 0
-40 60 0
-40 35 0
-41 63 0
-41 35 0
-42 66 0
-42 35 0
-43 69 0
-43 35 0
-44 72 0
-44 35 0
-45 75 0
-45 35 0
-46 78 0
-46 35 0
-202 214 0
-202 -132 0
-202 201 0
-203 217 0
-203 -135 0
-203 201 0
-204 220 0
-204 -138 0
-204 201 0
-205 223 0
-205 -141 0
-205 201 0
-206 226 0
-206 -144 0
-206 201 0
-207 229 0
-207 -147 0
-207 201 0
-208 232 0
-208 -150 0
-208 201 0
-209 235 0
-209 -153 0
-209 201 0
-210 238 0
-210 -156 0
-210 201 0
-211 241 0
-211 -159 0
-211 201 0
-212 244 0
-212 -162 0
-212 201 0
-368 380 0
-368 -298 0
-368 367 0
-369 383 0
-369 -301 0
-369 367 0
-370 386 0
-370 -304 0
-370 367 0
-371 389 0
-371 -307 0
-371 367 0
-372 392 0
-372 -310 0
-372 367 0
-373 395 0
-373 -313 0
-373 367 0
-374 398 0
-374 -316 0
-374 367 0
-375 401 0
-375 -319 0
-375 367 0
-376 404 0
-376 -322 0
-376 367 0
-377 407 0
-377 -325 0
-377 367 0
-378 410 0
-378 -328 0
-378 367 0
-534 546 0
-534 -464 0
-534 533 0
-535 549 0
-535 -467 0
-535 533 0
-536 552 0
-536 -470 0
-536 533 0
-537 555 0
-537 -473 0
-537 533 0
-538 558 0
-538 -476 0
-538 533 0
-539 561 0
-539 -479 0
-539 533 0
-540 564 0
-540 -482 0
-540 533 0
-541 567 0
-541 -485 0
-541 533 0
-542 570 0
-542 -488 0
-542 533 0
-543 573 0
-543 -491 0
-543 533 0
-544 576 0
-544 -494 0
-544 533 0
-121 134 0
-121 -47 0
-121 116 0
-122 137 0
-122 -50 0
-122 116 0
-123 140 0
-123 -53 0
-123 116 0
-124 143 0
-124 -56 0
-124 116 0
-125 146 0
-125 -59 0
-125 116 0
-126 149 0
-126 -62 0
-126 116 0
-127 152 0
-127 -65 0
-127 116 0
-128 155 0
-128 -68 0
-128 116 0
-129 158 0
-129 -71 0
-129 116 0
-130 161 0
-130 -74 0
-130 116 0
-131 164 0
-131 -77 0
-131 116 0
-287 300 0
-287 -213 0
-287 282 0
-288 303 0
-288 -216 0
-288 282 0
-289 306 0
-289 -219 0
-289 282 0
-290 309 0
-290 -222 0
-290 282 0
-291 312 0
-291 -225 0
-291 282 0
-292 315 0
-292 -228 0
-292 282 0
-293 318 0
-293 -231 0
-293 282 0
-294 321 0
-294 -234 0
-294 282 0
-295 324 0
-295 -237 0
-295 282 0
-296 327 0
-296 -240 0
-296 282 0
-297 330 0
-297 -243 0
-297 282 0
-453 466 0
-453 -379 0
-453 448 0
-454 469 0
-454 -382 0
-454 448 0
-455 472 0
-455 -385 0
-455 448 0
-456 475 0
-456 -388 0
-456 448 0
-457 478 0
-457 -391 0
-457 448 0
-458 481 0
-458 -394 0
-458 448 0
-459 484 0
-459 -397 0
-459 448 0
-460 487 0
-460 -400 0
-460 448 0
-461 490 0
-461 -403 0
-461 448 0
-462 493 0
-462 -406 0
-462 448 0
-463 496 0
-463 -409 0
-463 448 0
-116 47 -117 -118 -119 -120 121 0
-116 50 117 -118 -119 -120 122 0
-116 53 -117 118 -119 -120 123 0
-116 56 117 118 -119 -120 124 0
-116 59 -117 -118 119 -120 125 0
-116 62 117 -118 119 -120 126 0
-116 65 -117 118 119 -120 127 0
-116 68 117 118 119 -120 128 0
-116 71 -117 -118 -119 120 129 0
-116 74 117 -118 -119 120 130 0
-116 77 -117 118 -119 120 131 0
-282 213 -283 -284 -285 -286 287 0
-282 216 283 -284 -285 -286 288 0
-282 219 -283 284 -285 -286 289 0
-282 222 283 284 -285 -286 290 0
-282 225 -283 -284 285 -286 291 0
-282 228 283 -284 285 -286 292 0
-282 231 -283 284 285 -286 293 0
-282 234 283 284 285 -286 294 0
-282 237 -283 -284 -285 286 295 0
-282 240 283 -284 -285 286 296 0
-282 243 -283 284 -285 286 297 0
-448 379 -449 -450 -451 -452 453 0
-448 382 449 -450 -451 -452 454 0
-448 385 -449 450 -451 -452 455 0
-448 388 449 450 -451 -452 456 0
-448 391 -449 -450 451 -452 457 0
-448 394 449 -450 451 -452 458 0
-448 397 -449 450 451 -452 459 0
-448 400 449 450 451 -452 460 0
-448 403 -449 -450 -451 452 461 0
-448 406 449 -450 -451 452 462 0
-448 409 -449 450 -451 452 463 0
